20 4
91 65 36 60 74 23 39 97 11 72 66 96 36 96 86 99 78 49 75 57
89 24 55 18 10 21 38 44 20 78 14 16 47 73 53 85 71 28 38 44
64 89 70 66 30 99 71 35 92 87 90 84 96 24 27 41 40 19 47 47
60 80 78 39 98 16 43 65 74 45 96 62 58 54 82 48 96 81 77 30
